#######################################################################
#                                                                     #
#  poj.cin v0.1, 2005-01-25                                           #
#                                                                     #
# 本poj.cin原始檔案是由劉傑岳 Lâu Kiatgak <kiatgak@yahoo.com.tw>利用     #
# 甘為霖的《廈門音新字典》(Kam Ûi-lîm ê "Ē-mn̄g im ê jī-tián")            #
# (A dictionary of the Amoy vernacury by Willian Campbell)校對、補充後 #
# 的作品本檔案依據 GNU General Public License (GPL) version 2 或新版公開 #
# 授權，歡迎各界散佈及使用。                                             #
# o· 用ou 鼻音用 nn 入聲鼻音用 nnh 表示
#######################################################################
%gen_inp
%ename POJ
%cname 台文
%selkey asdfghjkl;
%keyname begin
a a
b b
c c
d d
e e
f f
g g
h h
i i
j j
k k
l l
m m
n n
o o
p p
q q
r r
s s
t t
u u
v v
w w
x x 
y y
z z
1 1
2 2
3 3
4 4
5 5
6 6
7 7
8 8
9 9
0 0
- -
' '
` `
^ ^
= =
| |
%keyname end
%chardef begin
,	，	1
,	,	2
,	　	3
,	、	0
.	。	2
.	.	1
:	：	2
:	:	1
;	；	2
;	;	1
?	？	2
?	?	1
!	！	2
!	!	1
[	「	3
[	『	2
[	[	1
]	」	3
]	』	2
]	]	1
(	(	3
(	（	2
(	《	1
)	)	3
)	）	2
)	》	1
-	-	1
'	'	1
`	`	1
^	^	1
=	=	1
|	|	1
A	A	1
B	B	1
C	C	1
D	D	1
E	E	1
F	F	1
G	G	1
H	H	1
I	I	1
J	J	1
K	K	1
L	L	1
M	M	1
N	N	1
O	O	1
P	P	1
Q	Q	1
R	R	1
S	S	1
T	T	1
U	U	1
V	V	1
W	W	1
X	X	1
Y	Y	1
Z	Z	1
a	a	1
b	b	1
c	c	1
d	d	1
e	e	1
f	f	1
g	g	1
h	h	1
i	i	1
j	j	1
k	k	1
l	l	1
m	m	1
n	n	1
o	o	1
p	p	1
q	q	1
r	r	1
s	s	1
t	t	1
u	u	1
v	v	1
w	w	1
x	x	1
y	y	1
z	z	1
a	唖
a	亜
a	啞
a	亜
a	呵
a	丫
a	亜
a	啞
a	阿
a	鴉
a	亦
a	野
a	亞
a	也
a	亞
a	夭
a	亞
a	啊
a	仔
a	阿
ah	亜
ah	押
ah	野
ah	亦
ah	亞
ah	也
ah	夭
ah	盒
ah	啊
ah	鴨
ai	爱
ai	曖
ai	噯
ai	噯
ai	埃
ai	隘
ai	哀
ai	愛
ainn	閒
ainn	閑
ak	渥
ak	篗
ak	籰
ak	偓
ak	握
ak	沃
am	泔
am	奄
am	闇
am	頷
am	黯
am	諳
am	奄
am	庵
am	湆
am	暗
amkun	頷滾
an	安
an	緊
an	安
an	咹
an	安
an	咱
an	晏
an	按
an	限
an	按
an	案
an	安
an	按
anchoann	按盞
ang	尪
ang	壜
ang	罎
ang	汪
ang	洪
ang	甕
ang	翁
ang	尫
ang	紅
angachheh	尫仔冊
angaphiau	尫仔標
angathau	尫仔頭
angatou	尫仔圖
anime	アニメ
ann	餡
anne	按呢
anni	按呢
ansng	按算
ap	狎
ap	盒
ap	押
ap	壓
aplek	壓力
at	閼
at	揭
au	歐
au	𥕥
au	后
au	懊
au	拗
au	嘔
au	漚
au	歐
au	喉
au	甌
au	後
aukhakin	後脚筋
aukhakun	後脚筋
aulai	後來
aupiah	後壁
ba	痲
ba	覓
ba	㝓
ba	貓
ba	覔
ba	峇
ba	猫
ba	麻
bah	嘛
bah	肉
bai	覔
bai	毴
bai	醜
bai	埋
bai	楣
bai	覓
bai	呆
bai	眉
bak	茉
bak	木
bak	泪
bak	墨
bak	目
bakchiu	目珠
bakchiu	目周
bakchiujin	目珠仁
bakchiujin	目周仁
bakkhou	目篐
bakkiann	目鏡
baksai	目屎
baksek	目色
ban	万
ban	巒
ban	滿
ban	晚
ban	輓
ban	幔
ban	卍
ban	蔓
ban	漫
ban	屘
ban	饅
ban	曼
ban	閩
ban	挽
ban	蠻
ban	萬
ban	慢
banengkong	萬應公
bang	忙
bang	芒
bang	茫
bang	蚊
bang	網
bang	夢
bang	望
bangcham	網站
bangiah	網頁
bangiu	網友
banglou	網路
bat	八
bat	密
bat	識
bau	鍪
bau	貌
bau	矛
bau	卯
bauh	貿
be	妹
be	碼
be	糜
be	尾
be	賣
be	未
be	袂
be	買
be	迷
be	馬
beh	脈
beh	襪
beh	麥
beh	卜
bek	麥
bek	脈
bek	墨
bek	默
beng	冥
beng	皿
beng	萌
beng	孟
beng	命
beng	銘
beng	盟
beng	猛
beng	名
beng	明
bengsu	名詞
besai	袂使
besin	迷信
betang	袂凍
bi	微
bi	未
bi	美
bi	味
bi	米
bian	棉
bian	綿
bian	眠
bian	緬
bian	面
bian	勉
bian	免
biat	滅
biau	廟
biau	秒
biau	妙
biau	描
biau	藐
biau	苗
biau	渺
bibiau	微妙
bih	米
bihun	米粉
bikok	美國
bikok	米國
bilai	未來
bin	黽
bin	岷
bin	閔
bin	面
bin	眠
bin	敏
bin	民
binachai	明旦再
binchheh	面冊
binchiat	敏捷
binchiong	民眾
binchu	民主
binchu	面子
binkan	民間
binnachai	明旦再
binsiong	面相
bio	描
bio	廟
bio	秒
bit	密
bit	蜜
bitbe	密碼
biu	謬
bo	无
bo	無
bo	帽
bo	母
boa	磨
boah	末
boah	抹
boan	晚
boan	滿
boat	末
boe	糜
boe	梅
boe	賣
boe	袂
boe	未
boe	買
boe	尾
boeh	襪
boeh	卜
boh	莫
boiann	無影
bok	寞
bok	漠
bok	穆
bok	牧
bok	睦
bok	目
bok	莫
bok	木
bokcheng	目前
bokphiau	目標
boktek	目的
bong	夢
bong	網
bong	妄
bong	芒
bong	莽
bong	忙
bong	忘
bong	蒙
bong	摸
bong	茫
bong	亡
bong	墓
bong	望
bong	罔
bou	厶
bou	慕
bou	幕
bou	墓
bou	牡
bou	募
bou	戊
bou	模
bou	茂
bou	貿
bou	某
bou	謀
bu	无
bu	毋
bu	侮
bu	巫
bu	誣
bu	務
bu	無
bu	武
bu	霧
bu	舞
bu	母
buchong	武裝
bukhi	武器
bulek	武力
bun	們
bun	玟
bun	紊
bun	旻
bun	汶
bun	雯
bun	紋
bun	呅
bun	門
bun	吻
bun	問
bun	悶
bun	聞
bun	文
bunbeng	文明
bunchiunn	文章
bunge	文藝
bunhak	文學
bunhian	文獻
bunhian	文献
bunhoa	文化
bunji	文字
bunpit	文筆
bunte	問題
but	吻
but	勿
but	魩
but	沒
but	勿
but	物
butli	物理
butlihak	物理學
buto	舞蹈
buto	武道
butthe	物體
cha	昨
cha	詐
cha	楂
cha	早
cha	炸
cha	查
chabou	查某
chah	扎
chah	閘
chai	哉
chai	裁
chai	侢
chai	早
chai	災
chai	宰
chai	栽
chai	齋
chai	再
chai	臍
chai	在
chai	材
chai	知
chai	載
chai	財
chai	才
chaiiann	知影
chailiau	材料
chainn	宰
chainn	指
cham	斬
cham	斬
cham	站
cham	針
cham	鏨
chan	讃
chan	賛
chan	讃
chan	讚
chan	讚
chan	贈
chan	贊
chan	殘
chan	盞
chan	層
chan	曾
chan	棧
chang	糭
chang	叢
chang	棕
chang	鬃
chang	粽
chang	欉
chann	斬
chap	汁
chap	雜
chap	十
chat	寔
chat	扎
chat	賊
chat	紮
chat	札
chat	實
chat	節
chau	剿
chau	巢
chau	找
chau	糟
chau	奏
chau	走
chau	灶
chaucheng	走爭
chauchhoe	走尋
che	姊
che	儕
che	齋
che	濟
che	寨
che	劑
che	罪
che	際
che	製
che	濟
che	這
che	制
che	姉
che	渣
che	齊
che	多
che	多
che	祭
che	債
che	坐
checho	製造
chechok	製作
cheh	仄
cheh	絕
chek	卽
chek	跡
chek	賊
chek	窄
chek	寂
chek	窒
chek	仄
chek	即
chek	嫉
chek	燭
chek	疾
chek	籍
chek	蹟
chek	績
chek	積
chek	責
chek	叔
chekchu	積聚
chekjim	責任
chektek	積德
cheng	凈
cheng	衆
cheng	睛
cheng	禎
cheng	鍾
cheng	楨
cheng	曾
cheng	僧
cheng	層
cheng	証
cheng	晴
cheng	井
cheng	征
cheng	晶
cheng	徵
cheng	曾
cheng	舂
cheng	靖
cheng	偵
cheng	從
cheng	貞
cheng	贈
cheng	憎
cheng	蒸
cheng	整
cheng	症
cheng	政
cheng	淨
cheng	腫
cheng	增
cheng	指
cheng	證
cheng	靜
cheng	種
cheng	爭
cheng	種
cheng	情
cheng	眾
cheng	精
cheng	前
cheng	正
cheng	鐘
chengam	腫頷
chengbeng	證明
chengbeng	証明
chengchha	爭差
chengchong	精裝
chenggi	正義
chenghu	政府
chengka	增加
chengkeng	正經
chengkhak	正確
chengkhu	舂臼
chenglang	眾人
chenglang	衆人
chengli	整理
chengsek	正式
chengsenn	精生
chengsin	精神
chengsinn	精生
chengthau	指頭
chengti	政治
chenn	諍
chenn	靜
chenn	井
chenn	爭
chetou	制度
chha	叉
chha	查
chha	吵
chha	差
chha	柴
chha	炒
chhah	插
chhah	揷
chhai	蔡
chhai	睬
chhai	綵
chhai	材
chhai	采
chhai	採
chhai	在
chhai	猜
chhai	彩
chhai	菜
chhai	裁
chhaichhu	採取
chhaieng	採用
chhaihong	採訪
chhaiiong	採用
chhailiau	材料
chhailiau	菜料
chhainn	筅
chhainn	彩
chhainn	千
chhaithang	菜蟲
chhaithang	菜虫
chhaithau	菜頭
chhak	鑿
chhakho	查考
chham	塹
chham	讒
chham	慚
chham	讖
chham	蠶
chham	懺
chham	參
chham	慘
chhamka	參加
chhamkho	參考
chhamsiong	參詳
chhamu	參與
chhan	潺
chhan	倩
chhan	燦
chhan	餐
chhan	孱
chhan	田
chhang	蔥
chhang	聰
chhang	葱
chhang	葱
chhangchuibi	汆水味
chhanthiann	餐廳
chhanthiann	餐厛
chhap	插
chhap	揷
chhaputto	差不多
chhat	擦
chhat	察
chhat	漆
chhat	賊
chhatthau	賊頭
chhau	艸
chhau	凑
chhau	湊
chhau	鈔
chhau	操
chhau	抄
chhau	草
chhau	臭
chhauhoeta	臭火焦
chhauhoeta	臭火礁
chhauhoeta	臭火乾
chhauhoeta	臭火 ta
chhauta	臭焦
chhauta	臭礁
chhauta	臭乾
chhauta	臭 ta
chhe	廁
chhe	扻
chhe	棲
chhe	厠
chhe	淒
chhe	初
chhe	炊
chhe	炊
chhe	箠
chhe	切
chhe	叉
chhe	尋
chhe	妻
chhe	髓
chhe	吹
chhe	吹
chhe	扯
chhe	脆
chhe	初
chhe	差
chheh	册
chheh	切
chheh	冊
chhek	惻
chhek	側
chhek	刺
chhek	尺
chhek	冊
chhek	促
chhek	戚
chhek	赤
chhek	測
chhek	粟
chhek	策
chhekgiam	測驗
chhekliang	測量
chhekliong	測量
chhekliong	測量
chheng	稱
chheng	青
chheng	稱
chheng	穿
chheng	請
chheng	松
chheng	清
chheng	銃
chheng	千
chhengchho	清楚
chhengchi	銃子
chhengeng	清閑
chhenghou	稱呼
chhengkhi	清氣
chhengkiat	清潔
chhengkiatche	清潔劑
chhengsong	清爽
chhengtu	清除
chhengtuchia	清除者
chhenn	星
chhenn	生
chhenn	醒
chhenn	青
chhi	处
chhi	癡
chhi	幟
chhi	處
chhi	取
chhi	持
chhi	刺
chhi	痴
chhi	市
chhi	徐
chhi	莿
chhi	鼠
chhi	試
chhi	飼
chhia	奢
chhia	斜
chhia	車
chhiah	刺
chhiah	赤
chhiahgu	赤牛
chhiahji	赤字
chhiahji	刺字
chhiahkha	赤脚
chhiahkhasian	赤脚先
chhiahsng	赤酸
chhiak	綽
chhiam	僣
chhiam	僭
chhiam	籤
chhiam	簽
chhiammia	簽名
chhian	諓
chhian	闡
chhian	阡
chhian	仟
chhian	千
chhian	踐
chhian	遷
chhian	淺
chhiang	膓
chhiang	倡
chhiang	搶
chhiang	廠
chhiang	腸
chhiang	唱
chhiang	猖
chhiang	娼
chhiang	昌
chhiang	淐
chhianhian	淺現
chhiann	成
chhiann	清
chhiann	且
chhiann	倩
chhiann	晟
chhiann	請
chhiap	竊
chhiap	妾
chhiat	切
chhiau	笑
chhiau	超
chhiau	搜
chhiaukoe	超過
chhigiam	試驗
chhih	市
chhim	寢
chhim	寢
chhim	侵
chhim	深
chhimchan	深層
chhimtou	深度
chhin	凊
chhin	親
chhin	秤
chhinchhiunn	親像
chhinn	星
chhinn	淺
chhinn	生
chhinn	醒
chhinn	青
chhinn	鮮
chhio	笑
chhioh	蓆
chhioh	尺
chhiok	綽
chhiok	雀
chhiok	促
chhiok	觸
chhiong	戕
chhiong	墻
chhiong	搶
chhiong	猖
chhiong	廠
chhiong	薔
chhiong	牆
chhiong	敞
chhiong	縱
chhiong	唱
chhiong	娼
chhiong	昌
chhiong	充
chhiong	衝
chhiong	倡
chhiong	沖
chhionn	牆
chhionn	薔
chhionn	上
chhionn	廠
chhionn	像
chhionn	墻
chhionn	搶
chhionn	象
chhionn	唱
chhip	楫
chhip	緝
chhip	輯
chhit	柒
chhit	拭
chhit	七
chhittho	𨑨迌
chhiu	揪
chhiu	鬚
chhiu	愁
chhiu	樹
chhiu	秋
chhiu	手
chhiuchheng	手銃
chhiulou	手路
chhiunn	牆
chhiunn	薔
chhiunn	上
chhiunn	廠
chhiunn	像
chhiunn	墻
chhiunn	搶
chhiunn	象
chhiunn	唱
chhiunnkiap	搶刼
chhiunnkiap	搶劫
chhiunnsiong	廠商
chhiupio	手錶
chhiuse	手勢
chhiuthau	手頭
chhng	艙
chhng	瘡
chhng	川
chhng	串
chhng	倉
chhng	村
chhng	穿
chhng	床
chho	艸
chho	操
chho	造
chho	噪
chho	操
chho	磋
chho	挫
chho	草
chho	楚
chho	臊
chho	錯
chho	剉
chhoa	娶
chhoa	𤆬
chhoa	蔡
chhoah	擦
chhoah	斜
chhoah	掣
chhoah	攃
chhoan	爨
chhoan	竄
chhoan	纂
chhoan	穿
chhoan	篡
chhoan	川
chhoan	串
chhoan	喘
chhoan	拴
chhoan	村
chhoe	髓
chhoe	尋
chhoeh	切
chhok	錯
chhok	鑿
chhong	窗
chhong	蔥
chhong	床
chhong	匆
chhong	瘡
chhong	滄
chhong	蒼
chhong	倉
chhong	聰
chhong	窓
chhong	創
chhongcho	創造
chhongchok	創作
chhongou	錯誤
chhou	楚
chhou	初
chhou	粗
chhou	醋
chhouhak	初學
chhoukang	粗工
chhoutang	粗重
chhu	处
chhu	处
chhu	處
chhu	趨
chhu	取
chhu	處
chhu	此
chhu	趣
chhu	次
chhu	鼠
chhu	厝
chhubi	趣味
chhugoan	次元
chhui	口
chhui	吹
chhui	崔
chhui	翠
chhui	催
chhui	碎
chhui	嘴
chhui	推
chhuli	處理
chhun	存
chhun	村
chhun	春
chhun	伸
chhun	寸
chhut	齣
chhut	出
chhuthian	出現
chhutlai	出來
chhutpan	出版
chhutsoann	出山
chhuttiunn	出張
chhuttong	出動
chi	姊
chi	旨
chi	沚
chi	址
chi	巳
chi	止
chi	芝
chi	枝
chi	糍
chi	至
chi	舐
chi	紫
chi	指
chi	支
chi	薯
chi	誌
chi	之
chi	子
chi	志
chi	只
chi	姉
chia	借
chia	遮
chia	者
chia	姐
chia	者
chia	蔗
chia	謝
chiah	卽
chiah	脊
chiah	跡
chiah	者
chiah	隻
chiah	食
chiah	即
chiahchhai	食菜
chiahchhailang	食菜人
chiahhong	食風
chiahlat	食力
chiahni	隻哖
chiahni	者哖
chiahnih	隻哖
chiahnih	者哖
chiahpng	食飯
chiak	爵
chiam	佔
chiam	占
chiam	潛
chiam	瞻
chiam	暫
chiam	詹
chiam	漸
chiam	針
chiam	尖
chiamchhia	針車
chiamchhihoat	針刺法
chiamchiam	漸漸
chiamkiu	針灸
chiamsi	暫時
chiamtui	針對
chian	箭
chian	錢
chian	薦
chian	前
chian	剪
chian	箋
chian	賤
chian	煎
chian	戰
chiancheng	戰爭
chianchhia	戰車
chianchun	戰船
chiang	將
chiang	彰
chiang	掌
chiang	章
chiang	漳
chiang	獎
chiang	障
chiang	將
chiann	情
chiann	正
chiann	汫
chiann	成
chiann	精
chiann	正
chiannpan	正版
chiannpan	正範
chiannsit	正實
chianpoe	前輩
chiantau	戰鬥
chiantauki	戰鬥機
chiap	接
chiap	謵
chiap	汁
chiapsiu	接受
chiat	浙
chiat	節
chiat	折
chiat	捷
chiau	蕉
chiau	鷦
chiau	椒
chiau	醮
chiau	憔
chiau	沼
chiau	詔
chiau	焦
chiau	昭
chiau	樵
chiau	鳥
chiau	招
chiau	照
chiauchng	樵全
chiaupi	樵備
chichhi	支持
chih	接
chih	折
chih	摺
chih	舌
chihui	指揮
chikau	指教
chim	箴
chim	浸
chim	斟
chim	枕
chim	啿
chim	嬸
chim	蟳
chimchiok	斟酌
chimia	指名
chin	真
chin	晋
chin	津
chin	臻
chin	甄
chin	尽
chin	賑
chin	拯
chin	升
chin	晉
chin	疹
chin	診
chin	震
chin	振
chin	盡
chin	秦
chin	進
chin	眞
china	支那
chincheng	進前
chinchiann	真正
chinchiann	眞正
chinheng	進行
chinlek	盡力
chinliong	盡量
chinn	精
chinn	晶
chinn	舐
chinn	諍
chinn	靜
chinn	井
chinn	爭
chinn	箭
chinn	錢
chinpong	盡磅
chinpou	進步
chio	醮
chio	椒
chio	少
chio	蕉
chio	招
chio	照
chioh	借
chioh	石
chiok	燭
chiok	粥
chiok	爵
chiok	酌
chiok	祝
chiok	足
chiong	奬
chiong	从
chiong	鐘
chiong	漳
chiong	璋
chiong	嶂
chiong	樟
chiong	醬
chiong	瘴
chiong	蔣
chiong	種
chiong	舂
chiong	腫
chiong	彰
chiong	狀
chiong	章
chiong	掌
chiong	從
chiong	終
chiong	將
chiong	獎
chiong	障
chiong	將
chiong	種
chiong	眾
chiong	鍾
chionn	槳
chionn	漿
chionn	裳
chionn	樟
chionn	蔣
chionn	掌
chionn	癢
chionn	醬
chionn	章
chionn	上
chip	寂
chip	籍
chip	執
chip	集
chit	這
chit	嫉
chit	疾
chit	脊
chit	得
chit	織
chit	職
chit	一
chit	質
chit	只
chiteng	指定
chitma	只馬
chito	指導
chiu	睭
chiu	啁
chiu	賙
chiu	週
chiu	舟
chiu	守
chiu	洲
chiu	州
chiu	就
chiu	珠
chiu	蛀
chiu	酒
chiu	咒
chiu	周
chiuchoa	咒咀
chiunn	槳
chiunn	漿
chiunn	裳
chiunn	樟
chiunn	蔣
chiunn	掌
chiunn	癢
chiunn	醬
chiunn	章
chiunn	上
chng	鑚
chng	庒
chng	从
chng	妝
chng	贓
chng	磚
chng	饌
chng	從
chng	莊
chng	全
chng	狀
chng	裝
chng	粧
chng	指
chng	鑽
chng	庄
chngthau	指頭
cho	艚
cho	佐
cho	早
cho	坐
cho	左
cho	糟
cho	座
cho	槽
cho	遭
cho	做
cho	曹
cho	棗
cho	造
choa	誓
choa	紙
choa	咀
choa	蛇
choah	拙
choah	絕
choaiunn	紙樣
choan	鑚
choan	饌
choan	磚
choan	撰
choan	鑽
choan	泉
choan	轉
choan	全
choan	專
choanbun	專門
choanche	專制
choanchit	專職
choangiap	專業
choanka	專家
choankho	專科
choanli	專利
choann	泉
choann	濺
choann	煎
choann	盞
choanniunn	盞樣
choanpou	全部
choansim	專心
choat	拙
choat	絕
choe	做
choe	罪
choe	齊
choe	多
choe	最
choeh	截
choeh	節
choekin	最近
choh	昨
choh	造
choh	作
chohoe	做伙
chok	濁
chok	昨
chok	作
chok	族
chokka	作家
chom	怎
chom	箴
chong	总
chong	搃
chong	庒
chong	庄
chong	蹤
chong	縂
chong	贓
chong	樁
chong	棕
chong	妝
chong	粧
chong	臟
chong	綜
chong	藏
chong	葬
chong	藏
chong	踪
chong	宗
chong	壯
chong	崇
chong	狀
chong	總
chong	莊
chong	裝
chonghu	臟腑
chongsi	總是
chongthai	狀態
chongthong	總統
chophiau	座標
chophiauhe	座標系
choseng	造成
chou	組
chou	奏
chou	詛
chou	組
chou	助
chou	租
chou	阻
chou	祖
choukong	祖公
chouma	祖媽
chousian	祖先
chu	玆
chu	茲
chu	紫
chu	梓
chu	駐
chu	孜
chu	字
chu	滋
chu	薯
chu	諮
chu	仔
chu	咨
chu	駐
chu	住
chu	姿
chu	資
chu	子
chu	註
chu	諸
chu	慈
chu	注
chu	煮
chu	珠
chu	聚
chu	主
chu	朱
chu	書
chu	自
chuchai	自在
chuchun	自尊
chui	悴
chui	隹
chui	誰
chui	醉
chui	錐
chui	水
chui	注意
chuichun	水凖
chuikai	水解
chuikhou	水庫
chuinn	鑚
chuinn	磚
chuinn	饌
chuinn	全
chuinn	鑽
chuiu	自由
chujian	自然
chujiankai	自然界
chukeh	資格
chuki	自己
chuliau	資料
chun	拵
chun	準
chun	逡
chun	駿
chun	峻
chun	遵
chun	俊
chun	准
chun	存
chun	尊
chun	凖
chun	𢙨
chun	圳
chun	船
chun	陣
chunchat	凖節
chunpi	凖備
chuntiong	尊重
chusin	自信
chusin	資訊
chut	卒
chut	朮
chutiunn	主張
chutiunn	磁場
chutong	自動
e	唖
e	会
e	箇
e	兮
e	能
e	穢
e	裔
e	鍋
e	啞
e	挨
e	會
e	鞋
e	下
e	个
e	矮
eh	狹
ehiau	能曉
ehiau	會曉
ehng	冥昏
ehng	下昏
ek	画
ek	畵
ek	畫
ek	驛
ek	繹
ek	液
ek	翊
ek	翌
ek	抑
ek	劃
ek	弋
ek	翼
ek	疫
ek	役
ek	亦
ek	易
ek	益
ek	億
ek	譯
ek	浴
ekha	下脚
eng	应
eng	应
eng	贏
eng	閒
eng	鷹
eng	嶸
eng	瓔
eng	櫻
eng	潁
eng	穎
eng	熒
eng	瑩
eng	嬰
eng	嬴
eng	詠
eng	瀛
eng	瑛
eng	盈
eng	營
eng	影
eng	映
eng	泳
eng	螢
eng	應
eng	榮
eng	永
eng	應
eng	湧
eng	英
eng	用
eng	閑
engbun	英文
engeng	閑閑
enggi	英語
enghiong	影響
enghoat	用法
engia	揚埃
engiong	應用
engiong	營養
engionghak	營養學
engiongsu	營養師
engkai	應該
engkok	英國
engpong	英磅
enn	嬰
epou	下晡
esai	會使
etang	能凍
etang	會凍
ete	下底
ga	芽
ga	訝
ga	衙
ga	牙
gai	礙
gai	呆
gai	艾
gai	崖
gai	涯
gai	碍
gak	嶽
gak	獄
gak	岳
gak	樂
gam	巖
gam	岩
gam	坎
gam	憨
gam	癌
gan	言
gan	諺
gan	彥
gan	岸
gan	顏
gan	眼
gan	雁
gang	昂
gankai	眼界
gankong	眼光
gasuh	瓦斯
gau	賢
gau	爻
gau	肴
ge	兮
ge	个
ge	毅
ge	衙
ge	芽
ge	牙
ge	藝
geh	月
gek	獄
gek	逆
gek	玉
geng	龍
geng	凝
geng	眼
geng	迎
gesut	藝術
gi	遇
gi	御
gi	愚
gi	漁
gi	乳
gi	儀
gi	擬
gi	宜
gi	議
gi	疑
gi	義
gi	語
gia	鵝
gia	夯
giah	㩮
giah	舉
giah	攑
giah	夯
giah	擧
giah	額
giam	閻
giam	嚴
giam	驗
gian	唁
gian	研
gian	言
giang	仰
giankiu	研究
giap	夾
giap	夾
giap	業
giat	孽
giau	堯
gigian	語言
gih	義
gihoat	語法
gim	扲
gim	吟
gim	錦
gin	艮
gin	囝
gin	銀
gina	囝仔
ginhang	銀行
ginkak	銀角仔
ginna	囝仔
ginphio	銀票
gio	蟯
giok	鈺
giok	瘧
giok	虐
giok	獄
giok	玉
giong	仰
gisu	語詞
giu	拞
giu	牛
giu	扭
go	熬
go	蛾
go	峨
go	娥
go	俄
go	遨
go	餓
go	鵝
goa	我
goa	外
goabin	外面
goaiong	外用
goakhau	外口
goan	願
goan	頑
goan	員
goan	玩
goan	源
goan	愿
goan	原
goan	元
goan	阮
goanbun	原本
goanchai	原在
goanchu	原子
goanchubichok	原住民族
goanchubin	原住民
goanchuhek	原子核
goanchulou	原子爐
goani	願意
goanin	原因
goanlai	原來
goanli	原理
goanliau	原料
goansou	元素
goante	原底
goanthau	源頭
goasiau	外銷
goat	月
goe	外
goeh	挾
goeh	月
goehbai	月眉
goehinn	月圓
goehniu	月娘
goehpeng	月pêng
goehsiong	月相
gok	鄂
gok	崿
gok	咢
gok	愕
gok	噩
gok	鱷
gong	卬
gong	慐
gong	怣
gong	昂
gong	戇
gongngiah	昂愕
gou	吾
gou	梧
gou	悞
gou	蜈
gou	誤
gou	悟
gou	五
gou	吳
gu	虞
gu	魚
gu	漁
gu	語
gu	隅
gu	馭
gu	禺
gu	禦
gu	御
gu	愚
gu	牛
gu	語
gu	寓
gu	遇
gui	偽
gui	僞
gui	魏
gui	危
guihiam	危險
gun	艮
gun	銀
gun	阮
gut	訖
ha	廈
ha	縖
ha	遐
ha	瑕
ha	厦
ha	夏
ha	孝
ha	霞
ha	下
hah	合
hai	亥
hai	械
hai	諧
hai	孩
hai	頦
hai	害
hai	海
haiang	海翁
haichhat	海賊
haichhau	海草
haichui	海水
haieng	海湧
haihoann	海岸
haiiunn	海洋
hainn	還
haisan	海產
haiti	海猪
haitiong	海漲
hak	學
hakbun	學問
hakchia	學者
hakhau	學校
hakmia	學名
hakseng	學生
haksip	學習
ham	蚶
ham	喊
ham	銜
ham	陷
ham	涵
ham	函
ham	憾
ham	含
ham	咸
ham	含
ham	蚶
hamhai	陷害
han	閒
han	汗
han	頇
han	旱
han	閑
han	翰
han	寒
han	漢
han	罕
han	蕃
han	限
han	韓
hanche	限制
hang	烘
hang	巷
hang	杭
hang	降
hang	巷
hang	行
hang	項
hanji	漢字
hanliong	限量
hap	合
hat	喝
hat	轄
hau	后
hau	吼
hau	囂
hau	侯
hau	候
hau	嘐
hau	後
hau	孝
hau	哮
hau	校
hau	效
hauko	效果
hauleng	效能
haulut	效率
hausoan	候選
hausoanjin	候選人
he	夥
he	夏
he	薈
he	和
he	痚
he	回
he	灰
he	係
he	系
he	伙
he	彼
he	貨
he	會
he	歲
he	火
he	蝦
he	下
hek	穫
hek	獲
hek	黑
hek	劾
hek	域
hek	惑
hek	或
hek	核
hek	肉
heng	恆
heng	馨
heng	型
heng	兄
heng	雄
heng	衡
heng	橫
heng	胸
heng	行
heng	恒
heng	杏
heng	刑
heng	幸
heng	興
heng	行
heng	興
heng	形
heng	還
hengbi	興味
hengchhinn	行星
hengchhinn	恒星
hengchhu	興趣
henghah	胸 ha̍h
hengiong	形容
hengkham	胸坎
hengsek	形式
hengseng	形成
hengthe	形體
hengtong	行動
hengui	行為
hengui	行爲
hethong	系統
hi	戯
hi	彼
hi	熙
hi	戱
hi	曦
hi	羲
hi	熹
hi	犧
hi	許
hi	稀
hi	耳
hi	肺
hi	希
hi	墟
hi	戲
hi	喜
hi	虛
hi	魚
hia	蟻
hia	瓦
hia	靴
hiah	靴
hiah	額
hiahnih	靴哖
hiahnn	㑆
hiahnn	拀
hiam	辛
hiam	喊
hiam	險
hiam	嫌
hian	獻
hian	懸
hian	縣
hian	硯
hian	絃
hian	弦
hian	玄
hian	憲
hian	軒
hian	掀
hian	賢
hian	現
hian	顯
hian	献
hianbeng	顯名
hianbeng	顯明
hiang	鄕
hiang	響
hiang	享
hiang	鄉
hiang	香
hiang	向
hiangsiu	享受
hiann	刑
hiann	艾
hiann	兄
hiann	炾
hiannh	㑆
hiannh	拀
hiansi	現時
hiansiong	現象
hiantai	現代
hiap	脅
hiap	協
hiapgi	狹義
hiapgi	協議
hiat	穴
hiat	血
hiau	梟
hiau	僥
hiau	嫐
hiau	曉
hibang	希望
hibang	漁網
hibin	漁民
hihoe	漁會
him	熊
him	欣
hin	眩
hinn	硯
hinn	耳
hioh	葉
hioh	宿
hiohkhun	宿困
hiohoe	後悔
hiohsian	宿 siān
hiok	旭
hiong	鄕
hiong	胸
hiong	匈
hiong	向
hiong	兇
hiong	響
hiong	享
hiong	雄
hiong	凶
hiong	香
hiong	鄉
hionghiong	雄雄
hip	翕
hit	許
hit	彼
hiu	朽
hiu	休
hiu	休
hiu	裘
hiunn	鄕
hiunn	鄉
hiunn	向
hiunn	香
hm	媒
hm	茅
hng	荒
hng	昏
hng	園
hng	方
hng	遠
ho	蠔
ho	毫
ho	賀
ho	壕
ho	豪
ho	荷
ho	禍
ho	禾
ho	和
ho	號
ho	何
ho	河
ho	好
hoa	画
hoa	畵
hoa	畫
hoa	樺
hoa	華
hoa	化
hoa	華
hoa	化
hoa	花
hoachioh	化石
hoagi	華語
hoah	跬
hoah	喝
hoah	䞨
hoahak	化學
hoai	壞
hoai	頦
hoai	懷
hoainn	橫
hoan	還
hoan	梵
hoan	飯
hoan	宦
hoan	患
hoan	吩
hoan	凡
hoan	歡
hoan	礬
hoan	範
hoan	販
hoan	繁
hoan	泛
hoan	范
hoan	犯
hoan	幻
hoan	煩
hoan	翻
hoan	番
hoan	凡
hoan	反
hoanek	翻譯
hoaneng	反應
hoangeng	歡迎
hoanlo	煩惱
hoann	岸
hoann	歡
hoannhi	歡喜
hoat	髮
hoat	活
hoat	伐
hoat	法
hoat	罰
hoat	發
hoatbeng	發明
hoatchai	發財
hoathian	發現
hoatim	發音
hoatinn	法院
hoatkoann	法官
hoatpiau	發表
hoatseng	發生
hoatsut	法術
hoattat	發達
hoattong	發動
hoattongki	發動機
hoattou	法度
hoe	夥
hoe	迴
hoe	化
hoe	徊
hoe	灰
hoe	蟹
hoe	薈
hoe	匯
hoe	悔
hoe	廢
hoe	伙
hoe	會
hoe	和
hoe	廻
hoe	回
hoe	貨
hoe	火
hoe	歲
hoe	花
hoegi	會議
hoegoan	會員
hoeh	血
hoeoan	會員
hoepo	回報
hoethoann	火炭
hoh	鶴
hok	覆
hok	伏
hok	複
hok	複
hok	幅
hok	復
hok	輻
hok	服
hok	福
hokchap	複雜
hokgoan	復原
hoksai	服事
hoksip	復習
hoksou	複數
hong	峯
hong	簧
hong	縫
hong	璜
hong	篁
hong	遑
hong	煌
hong	黃
hong	隍
hong	湟
hong	惶
hong	徨
hong	瘋
hong	航
hong	仿
hong	荒
hong	烘
hong	紅
hong	洪
hong	杭
hong	防
hong	妨
hong	楓
hong	妨
hong	封
hong	況
hong	皇
hong	訪
hong	俸
hong	峰
hong	況
hong	倣
hong	凰
hong	弘
hong	放
hong	奉
hong	鋒
hong	豐
hong	芳
hong	鳳
hong	鴻
hong	宏
hong	方
hong	馮
hong	逢
hong	風
hongbin	方面
honghoat	方法
honghu	豐富
honghun	黃昏
honghunam	黃昏暗
hongkhi	放棄
hongpoesoa	風飛沙
hongsang	放送
hongsek	方式
hongsia	風邪
hongsiok	風俗
hongtian	放電
hou	滬
hou	後
hou	厚
hou	后
hou	湖
hou	胡
hou	否
hou	糊
hou	呼
hou	互
hou	護
hou	弧
hou	戶
hou	虎
hou	狐
hou	雨
hou	乎
hounn	火
hounn	貨
hounn	好
hounn	好
hounn	否
hu	阜
hu	賦
hu	甫
hu	腐
hu	墟
hu	婦
hu	腐
hu	府
hu	虛
hu	附
hu	符
hu	扶
hu	許
hu	膚
hu	負
hu	附
hu	咐
hu	付
hu	父
hu	副
hu	夫
hu	富
hu	赴
huho	符號
hui	毀
hui	徽
hui	諱
hui	霏
hui	誹
hui	翡
hui	廢
hui	肥
hui	菲
hui	飛
hui	緯
hui	費
hui	匪
hui	揮
hui	蕙
hui	輝
hui	妃
hui	惠
hui	慧
hui	磁
hui	非
huih	血
huikhi	廢氣
huikhi	費氣
huinn	橫
huinntit	橫直
hun	分
hun	煙
hun	熏
hun	勳
hun	薰
hun	墳
hun	紛
hun	奮
hun	焚
hun	憤
hun	混
hun	芬
hun	粉
hun	恨
hun	訓
hun	婚
hun	魂
hun	昏
hun	烟
hun	份
hun	痕
hun	分
hun	雲
hunin	婚姻
hunkai	分解
hunkhui	分開
hunlian	訓練
hunpiat	分別
hut	惚
hut	拂
hut	弗
hut	忽
hut	核
hut	佛
i	医
i	倚
i	夷
i	矣
i	衣
i	咿
i	惟
i	易
i	異
i	維
i	以
i	依
i	怡
i	已
i	姨
i	移
i	醫
i	伊
i	椅
i	意
ia	也
ia	夭
ia	野
ia	耶
ia	也
ia	厭
ia	爺
ia	椰
ia	夜
iah	亦
iah	易
iah	野
iah	挖
iah	驛
iah	蝶
iah	夭
iah	頁
iah	也
iai	意愛
iak	藥
iak	約
iam	豔
iam	厭
iam	艷
iam	厭
iam	掩
iam	炎
iam	閻
iam	鹽
iam	塩
iamjit	炎日
ian	煙
ian	衍
ian	焉
ian	堰
ian	淵
ian	衍
ian	院
ian	咽
ian	筵
ian	宴
ian	延
ian	燕
ian	偃
ian	胭
ian	沿
ian	鉛
ian	緣
ian	烟
ian	演
iang	映
iang	樣
iang	洋
iang	養
iang	羊
iang	楊
iang	揚
iang	鴦
iang	殃
iang	央
iang	陽
ianhun	緣份
iankou	緣故
iann	贏
iann	嬴
iann	營
iann	影
iannin	影印
iannphinn	影片
iap	頁
iap	葉
iap	葉
iat	謁
iat	悅
iau	遙
iau	搖
iau	瑤
iau	謠
iau	腰
iau	殀
iau	要
iau	舀
iau	么
iau	窈
iau	耀
iau	曜
iau	要
iau	邀
iau	妖
iau	夭
iau	夭
iau	飫
iau	以後
iaukin	要緊
iaukoh	夭閣
icha	以早
ichhi	維持
igi	意義
igoan	意願
ikeng	已經
ikian	意見
im	阴
im	隂
im	飲
im	淫
im	陰
im	蔭
im	淹
im	音
imi	意麵
imtian	陰電
in	孕
in	恩
in	蚓
in	寅
in	隱
in	姻
in	允
in	印
in	引
in	應
in	因
inkam	印鑑
inn	員
inn	異
inn	嬰
inn	易
inn	圓
inn	院
insiong	印象
intoan	因端
inui	因為
inui	因爲
io	喲
io	搖
io	腰
ioh	葯
ioh	喲
ioh	約
ioh	藥
iohchui	藥水
iohkiok	藥局
iohoan	藥丸
iohpang	藥房
iohphin	藥品
iok	葯
iok	龠
iok	鑰
iok	籥
iok	藥
iok	躍
iok	浴
iok	約
iok	欲
iok	慾
iok	育
iong	雍
iong	楊
iong	鴦
iong	樣
iong	洋
iong	映
iong	殃
iong	羊
iong	融
iong	揚
iong	養
iong	甕
iong	陽
iong	湧
iong	溶
iong	勇
iong	央
iong	用
iong	庸
iong	蓉
iong	容
iongchong	勇壯
ionghoat	用法
iongkam	勇敢
iongkhi	勇氣
iongkiann	勇健
iongtian	陽電
ionn	鴦
ip	邑
iseng	醫生
isengkoan	醫生館
isengniu	醫生娘
isu	意思
isu	醫師
it	壹
it	乙
it	憶
it	一
iti	醫治
itou	意圖
itpoann	一般
itteng	一定
ittit	一直
iu	賄
iu	誘
iu	酉
iu	遊
iu	游
iu	悠
iu	酋
iu	祐
iu	佑
iu	優
iu	憂
iu	有
iu	右
iu	幽
iu	又
iu	友
iu	幼
iu	猶
iu	尤
iu	柚
iu	郵
iu	由
iu	油
iuchhinn	遊星
iuengkong	有應公
iukang	幼工
iulou	幼路
iunn	鴦
iunn	養
iunn	舀
iunn	楊
iunn	洋
iunn	樣
iunn	羊
iusian	優先
iusiu	優秀
jeng	茸
jeng	仍
ji	兪
ji	弍
ji	貳
ji	乳
ji	俞
ji	膩
ji	如
ji	茹
ji	餌
ji	子
ji	而
ji	兒
ji	字
ji	二
jia	惹
jia	遮
jiaiam	遮掩
jiak	溺
jiak	篛
jiak	箬
jiak	若
jiak	弱
jiam	苒
jiam	冉
jiam	染
jian	燃
jian	然
jiang	勷
jiang	禳
jiang	攘
jiang	嚷
jiang	穰
jiang	欀
jiang	瀼
jiang	壤
jiang	釀
jiang	讓
jiap	廿
jiat	熱
jiau	饒
jiau	皺
jiau	抓
jiau	爪
jibo	字母
jim	軔
jim	仞
jim	刃
jim	牣
jim	稔
jim	韌
jim	任
jim	軔
jim	仭
jim	恁
jim	刄
jim	壬
jim	妊
jim	荏
jim	賃
jim	忍
jim	認
jim	任
jin	仁
jin	人
jin	認
jinbut	人物
jinchin	認眞
jinkang	人工
jintong	認同
jinui	認爲
jio	耦
jio	尿
jiok	若
jiok	肉
jiok	褥
jiok	逐
jiok	辱
jiok	弱
jiong	宂
jiong	冗
jiong	壤
jiong	戎
jiong	讓
jiong	絨
jiong	茸
jip	趇
jip	入
jipkhi	入去
jisu	字詞
jit	馹
jit	衵
jit	日
jitchi	日子
jitgi	日語
jitian	字典
jitki	日期
jitpun	日本
jitsiong	日常
jitthau	日頭
jiu	鰇
jiu	柔
joa	若
joa	賴
joa	外
joah	𤍠
joah	熱
joahthinn	熱天
joan	軟
joe	睿
ju	楡
ju	兪
ju	諭
ju	喩
ju	踰
ju	榆
ju	乳
ju	俞
ju	孺
ju	腴
ju	字
ju	臾
ju	裕
ju	儒
ju	諭
ju	喻
ju	愈
ju	茹
ju	如
Jun	閏
Jun	潤
juntek	潤澤
ka	敎
ka	架
ka	價
ka	假
ka	駕
ka	傀
ka	佳
ka	假
ka	珈
ka	較
ka	咖
ka	嘉
ka	家
ka	膠
ka	交
ka	教
ka	絞
ka	鉸
ka	加
ka	咬
ka	共
kachak	咳逆
kachiong	家將
kah	到
kah	較
kah	甲
kai	盖
kai	丐
kai	玠
kai	芥
kai	誡
kai	偕
kai	个
kai	廨
kai	屆
kai	戒
kai	解
kai	改
kai	蓋
kai	界
kai	該
kai	階
kai	介
kai	皆
kaichng	改裝
kaichong	改裝
kainn	間
kaipian	改變
kaisiau	介紹
kaisoeh	解說
kaitoann	階段
kak	覚
kak	覺
kak	角
kaki	加忌
kaksek	角色
kam	鍳
kam	鑒
kam	鑑
kam	監
kam	敢
kam	含
kam	感
kam	柑
kam	甘
kam	監
kam	咁
kameng	感應
kamgoan	甘願
kamkak	感覺
kamkek	感激
kammou	感冒
kamsia	感謝
kamsiong	感想
kamtok	監督
kamtong	感動
kamun	感恩
kan	竿
kan	稈
kan	肝
kan	間
kan	柬
kan	乾
kan	艱
kan	幹
kan	間
kan	奸
kan	諫
kan	簡
kan	矸
kan	干
kang	蚣
kang	江
kang	講
kang	降
kang	仝
kang	公
kang	共
kang	工
kang	港
kang	仝
kangcho	講座
kangchok	工作
kangchoksek	工作室
kanggiap	工業
kanghu	工夫
kangkai	講解
kangkhau	港口
kangkhoan	共欵
kangkhoan	仝欵
kangkiu	講究
kanglang	工人
kangte	工地
kangtheng	工程
kangthengchhia	工程車
kangthengsu	工程師
kangtiunn	工場
kann	子
kann	酵
kann	監
kann	敢
kanna	干焦
kanna	干礁
kanna	干乾
kannsou	酵素
kanta	干焦
kanta	干礁
kanta	干乾
kantan	簡單
kantann	干焦
kantann	干礁
kantann	干乾
kap	蛤
kap	合
kap	甲
kapi	珈琲
kapou	膠布
kasoktou	加速度
kat	葛
kat	割
kat	結
kato	鉸刀
kau	鉤
kau	玖
kau	敎
kau	口
kau	鮫
kau	膠
kau	佼
kau	較
kau	校
kau	溝
kau	狡
kau	教
kau	郊
kau	交
kau	狗
kau	猴
kau	九
kau	到
kau	厚
kau	鈎
kauchai	教材
kaugoan	教員
kauh	𩛩
kauhia	狗蟻
kauhoe	教會
kauiok	教育
kaukoai	狡怪
kauliu	交流
kausek	教室
kausiu	教授
kauthong	交通
ke	雞
ke	果
ke	機
ke	稽
ke	改
ke	易
ke	解
ke	界
ke	繼
ke	街
ke	過
ke	架
ke	枷
ke	鷄
ke	菓
ke	價
ke	嫁
ke	家
ke	粿
ke	計
ke	下
ke	加
ke	假
kebou	計謀
kechhek	計策
keek	計劃
keh	逆
keh	郭
keh	隔
keh	格
kehsek	格式
keiann	假影
kek	隔
kek	戟
kek	棘
kek	局
kek	擊
kek	革
kek	菊
kek	格
kek	極
kek	激
kelang	基隆
kelang	鷄籠
keng	芎
keng	肱
keng	驚
keng	莖
keng	耕
keng	荊
keng	鏡
keng	庚
keng	徑
keng	鯨
keng	京
keng	窮
keng	競
keng	供
keng	境
keng	更
keng	競
keng	警
keng	竟
keng	更
keng	警
keng	敬
keng	肩
keng	襇
keng	經
keng	宮
keng	弓
keng	景
keng	揀
keng	間
kengche	經濟
kengchhat	警察
kengchhatkiok	警察局
kengchhia	警車
kenggiam	經驗
kengli	經理
kenn	耕
kenn	羹
kenn	骾
kenn	經
kenn	庚
kenn	焿
kenn	更
keoe	計畫
kepo	家婆
keseng	繼承
kesiau	假嬲
kesiau	價數
kesiok	繼續
ketat	價值
ketatkoan	價值觀
kha	腳
kha	足
kha	尻
kha	敲
kha	脚
kha	巧
khaaukin	脚後筋
khaaukun	脚後筋
khah	籱
khah	恰
khah	卡
khahchoah	恰絕
khahchoah	卡絕
khai	楷
khai	愷
khai	剴
khai	慨
khai	凱
khai	開
khai	概
khaigiap	開業
khaihak	開學
khaihoat	開發
khaihong	開放
khaikang	開工
khaisi	開始
khak	殼
khak	確
khak	壳
khakjin	確認
khaksit	確實
khakteng	確定
kham	龕
kham	勘
kham	坎
kham	崁
kham	堪
khan	刋
khan	衎
khan	侃
khan	刊
khan	看
khan	牽
khanbong	牽亡
khanchhiu	牽手
khang	工
khang	孔
khang	空
khangkhoe	工課
khangphang	空縫
khanlian	牽連
khann	坩
khann	硿
khanseng	牽成
khanthoa	牽拖
khap	闔
khap	恰
khap	磕
khat	渴
khatahchhia	脚踏車
khau	鬮
khau	叩
khau	扣
khau	巧
khau	口
khau	敲
khau	哭
khaucho	口座
khauhok	口服
khe	啓
khe	科
khe	課
khe	稽
khe	詼
khe	契
khe	啟
khe	溪
kheh	篋
kheh	契
kheh	缺
kheh	䀫
kheh	客
khehchng	客庄
khehgi	客語
khehlang	客人
khehoe	客話
khek	客
khek	劾
khek	剋
khek	克
khek	刻
khek	曲
kheng	琼
kheng	輕
kheng	傾
kheng	卿
kheng	頃
kheng	慶
kheng	瓊
kheng	肯
kheng	虹
kheng	框
khengkhak	框壳
khenn	坑
khi	敧
khi	气
khi	犄
khi	騎
khi	企
khi	嶇
khi	驅
khi	綺
khi	豈
khi	拘
khi	區
khi	企
khi	棄
khi	器
khi	蜞
khi	欺
khi	欹
khi	汽
khi	氣
khi	柿
khi	去
khi	齒
khi	起
khia	豎
khia	徛
khia	立
khia	奇
khia	迦
khia	伽
khia	竪
khia	騎
khiah	隙
khiak	卻
khiak	壆
khiak	躩
khiak	毃
khiak	埆
khiak	怯
khiak	却
khiakhi	立起
khiakhi	竪起
khiam	黚
khiam	鉆
khiam	拑
khiam	仱
khiam	慊
khiam	嗛
khiam	箝
khiam	鉗
khiam	傔
khiam	鈐
khiam	歉
khiam	芡
khiam	黔
khiam	謙
khiam	儉
khiam	欠
khiamkhoat	欠缺
khiamtiam	欠點
khian	愆
khian	搴
khian	騫
khian	鏗
khian	牽
khian	畎
khian	幵
khian	虔
khian	譴
khian	遣
khian	犬
khian	乾
khiang	嗴
khiang	鏗
khiang	腔
khiang	慶
khiansng	摼損
khiap	怯
khiat	纈
khiat	鴶
khiat	朅
khiat	恝
khiat	擷
khiat	頡
khiat	硈
khiat	詰
khiat	訐
khiat	拮
khiat	契
khiat	孑
khiau	蹻
khiau	蹺
khiau	竅
khiau	𠁆
khiau	巧
khichhng	起床
khichhu	起厝
khicho	起造
khihau	氣候
khikhi	起去
khilai	起來
khim	芩
khim	昑
khim	坅
khim	檎
khim	衾
khim	衿
khim	噤
khim	擒
khim	紟
khim	澿
khim	襟
khim	禽
khim	欽
khim	琴
khin	芹
khin	勤
khin	輕
khinkho	輕khó
khinn	鉗
khinn	坑
khinphio	輕剽
khinsang	輕鬆
khintang	輕重
khio	扣
khioh	卻
khioh	拾
khioh	却
khiok	卻
khiok	曲
khiok	却
khiong	恐
khiongpou	恐怖
khionn	腔
khip	泣
khip	汲
khip	吸
khipin	吸引
khipong	起磅
khipsiu	吸收
khisiau	起嬲
khisiong	氣象
khisiongkiok	氣象局
khit	乞
khiu	鳩
khiu	蚯
khiu	丘
khiu	球
khiu	拞
khiunn	腔
khng	劝
khng	勸
khng	康
khng	糠
khng	藏
kho	攷
kho	可
kho	課
kho	靠
kho	科
kho	考
khoa	挂
khoa	罣
khoa	跨
khoa	誇
khoa	跨
khoa	可
khoa	掛
khoah	闊
khoah	渴
khoah	濶
khoai	快
khoai	可愛
khoaikhoai	快快
khoainn	看見
khoan	寛
khoan	款
khoan	勸
khoan	圈
khoan	寬
khoan	權
khoan	環
khoan	欵
khoankeng	環境
khoann	寛
khoann	款
khoann	快
khoann	欵
khoann	看
khoann	寬
khoanpo	環保
khoat	闊
khoat	闕
khoat	濶
khoat	缺
khochhi	考試
khoe	魁
khoe	課
khoe	溪
khoe	詼
khoe	契
khoeh	篋
khoeh	缺
khoeh	契
khoeh	䀫
khogiam	考驗
khohak	科學
khoi	可以
khok	告
khok	哭
khok	鵠
khok	擴
khok	酷
khoki	科技
kholeng	可能
kholian	可憐
kholu	考慮
khong	曠
khong	慷
khong	伉
khong	亢
khong	壙
khong	控
khong	空
khong	孔
khong	抗
khong	砊
khong	康
khong	空
khongbut	礦物
khongbutchit	礦物質
khongche	控制
khongcheng	抗爭
khonggi	抗議
khongkan	空間
khoounn	可惡
khotheng	課程
khou	課
khou	靠
khou	寇
khou	扣
khou	口
khou	叩
khou	可
khou	呼
khou	褲
khou	篐
khou	許
khou	庫
khou	苦
khu	嶇
khu	驅
khu	懼
khu	去
khu	具
khu	拘
khu	臼
khu	蹲
khu	軀
khu	區
khu	坵
khu	邱
khui	亏
khui	傀
khui	詭
khui	軌
khui	愧
khui	虧
khui	氣
khui	開
khuilat	氣力
khuinn	劝
khuinn	勸
khun	梱
khun	捆
khun	裍
khun	棞
khun	悃
khun	鯤
khun	崑
khun	窘
khun	芹
khun	勤
khun	昆
khun	懇
khun	墾
khun	菌
khun	坤
khun	綑
khun	困
khunjiau	困擾
khunlan	困難
khunlantou	困難度
khut	屈
khut	堀
khutchiat	屈折
khuthui	臼槌
khutse	屈勢
ki	舉
ki	旂
ki	丌
ki	亓
ki	机
ki	祇
ki	耆
ki	岐
ki	渠
ki	圻
ki	句
ki	姬
ki	碁
ki	居
ki	騏
ki	畿
ki	錤
ki	蜞
ki	萁
ki	譏
ki	距
ki	麒
ki	拒
ki	据
ki	琪
ki	磯
ki	莒
ki	巨
ki	幾
ki	淇
ki	驥
ki	懼
ki	具
ki	冀
ki	圮
ki	寄
ki	幾
ki	踦
ki	妓
ki	碕
ki	技
ki	畸
ki	琦
ki	崎
ki	車
ki	乩
ki	鋸
ki	矩
ki	據
ki	杞
ki	饑
ki	擧
ki	機
ki	既
ki	忌
ki	指
ki	歧
ki	基
ki	祈
ki	飢
ki	技
ki	旗
ki	己
ki	棋
ki	期
ki	紀
ki	其
ki	奇
ki	枝
ki	記
kia	迦
kia	崎
kia	寄
kiah	㩮
kiah	舉
kiah	攑
kiah	屐
kiah	夯
kiah	擧
kiak	腳
kiak	臄
kiak	矍
kiak	脚
kiak	劇
kiam	塩
kiam	鹽
kiam	减
kiam	醎
kiam	鐱
kiam	緘
kiam	鶼
kiam	鋄
kiam	撿
kiam	蒹
kiam	縑
kiam	檢
kiam	敢
kiam	咁
kiam	劍
kiam	兼
kiam	鹹
kiam	減
kiamchhai	減彩
kian	慳
kian	囝
kian	蹇
kian	鞬
kian	謇
kian	褰
kian	揵
kian	犍
kian	鍵
kian	件
kian	筧
kian	肩
kian	繭
kian	建
kian	堅
kian	見
kian	健
kianchhi	堅持
kiang	繈
kiang	強
kiang	強
kiang	強
kiang	羌
kiang	傹
kiang	倞
kiang	繮
kiang	謽
kiang	韁
kiang	彊
kiang	橿
kiang	薑
kiang	僵
kiang	疆
kiang	襁
kiang	繦
kiang	羗
kiang	姜
kiang	疆
kiang	疆
kiang	强
kiang	强
kiang	强
kiangi	建議
kiankok	建國
kiankou	堅固
kiann	惊
kiann	京
kiann	健
kiann	鏡
kiann	件
kiann	驚
kiann	行
kiann	子
kiannhiann	驚刑
kiannlou	行路
kianphi	堅庀
kiansim	堅心
kianteng	堅定
kiap	刧
kiap	刦
kiap	鋏
kiap	篋
kiap	蛺
kiap	筴
kiap	袷
kiap	頰
kiap	愜
kiap	莢
kiap	俠
kiap	刼
kiap	峽
kiap	夾
kiap	劫
kiat	橘
kiat	㓗
kiat	偈
kiat	竭
kiat	羯
kiat	潔
kiat	碣
kiat	揭
kiat	桀
kiat	揭
kiat	傑
kiat	杰
kiat	桔
kiat	吉
kiat	結
kiathap	結合
kiatko	結果
kiatlun	結論
kiatsok	結束
kiau	皦
kiau	皎
kiau	驕
kiau	橋
kiau	矯
kiau	轎
kiau	轎
kiau	轎
kiau	喬
kiau	僑
kiau	喬
kiau	嬌
kiau	繳
kiau	攪
kibiau	奇妙
kiche	機制
kichhou	基礎
kihai	機械
kihoe	機會
kikhi	機器
kikhilang	機器人
kiliam	記念
kiliok	記錄
kilok	記錄
kilut	機率
kim	僸
kim	禁
kim	噤
kim	今
kim	妗
kim	禁
kim	錦
kim	金
kimchoa	金紙
kimchu	金主
kimlou	金爐
kimpai	金牌
kimsin	金身
kimsiok	金屬
kimtiau	金條
kin	今
kin	槿
kin	饉
kin	覲
kin	瑾
kin	瑾
kin	僅
kin	僅
kin	蚓
kin	均
kin	謹
kin	跟
kin	根
kin	近
kin	筋
kin	巾
kin	斤
kin	緊
kinajit	今旦日
kinkhoai	緊快
kinkin	緊緊
kinn	耕
kinn	骾
kinn	經
kinn	羹
kinn	庚
kinn	焿
kinn	更
kinn	墘
kinn	見
kinnajit	今旦日
kintai	近代
kio	蕎
kio	轎
kio	橋
kio	茄
kio	呌
kio	叫
kioh	腳
kioh	脚
kiok	腳
kiok	鞠
kiok	脚
kiok	劇
kiok	局
kiok	菊
kiong	強
kiong	強
kiong	共
kiong	穹
kiong	弓
kiong	襁
kiong	僵
kiong	鞏
kiong	疆
kiong	疆
kiong	姜
kiong	躬
kiong	强
kiong	供
kiong	窮
kiong	强
kiong	拱
kiong	共
kiong	恭
kiong	宮
kionghi	恭喜
kiongtiau	強調
kiongtong	共同
kionn	薑
kip	給
kip	芨
kip	及
kip	急
kip	級
kipseng	急性
kisit	其實
kisut	技術
kit	吉
kite	基底
kiti	記池
kitok	基督
kitokkau	基督教
kiu	柩
kiu	柩
kiu	咎
kiu	韭
kiu	舊
kiu	糾
kiu	久
kiu	九
kiu	糾
kiu	究
kiu	鳩
kiu	球
kiu	求
kiu	救
kiunn	薑
kng	卷
kng	廣
kng	貫
kng	鋼
kng	扛
kng	管
kng	光
kng	捲
kng	卷
kngle	捲螺
kngliang	光亮
kngsoann	光線
ko	箇
ko	歌
ko	誥
ko	戈
ko	鍋
ko	膏
ko	篙
ko	高
ko	過
ko	稿
ko	果
ko	羔
ko	糕
ko	個
ko	告
ko	哥
koa	盖
koa	挂
koa	瓜
koa	過
koa	芥
koa	卦
koa	蓋
koa	卦
koa	掛
koa	柯
koa	歌
koaachheh	歌仔冊
koabu	歌舞
koabutiunn	歌舞場
koah	割
koah	割
koah	葛
koah	刈
koah	刈
koaho	掛號
koahochhu	掛號處
koai	乖
koai	拐
koai	怪
koainn	枴
koainn	県
koainn	慣
koainn	杆
koainn	拐
koainn	高
koainn	關
koainn	縣
koakhek	歌曲
koan	県
koan	罆
koan	館
koan	礶
koan	倦
koan	棺
koan	盥
koan	鵑
koan	冠
koan	捐
koan	娟
koan	眷
koan	冠
koan	券
koan	卷
koan	權
koan	官
koan	慣
koan	舘
koan	關
koan	縣
koan	觀
koan	貫
koan	管
koan	灌
koan	高
koan	罐
koanchiong	觀眾
koanhe	關係
koankian	關鍵
koankong	關公
koanli	管理
koanliam	觀念
koanligoan	管理員
koann	趕
koann	乾
koann	扞
koann	菅
koann	棺
koann	寡
koann	杆
koann	竿
koann	干
koann	赶
koann	肝
koann	寒
koann	汗
koann	官
koanseng	慣性
koansi	慣勢
koansim	關心
koantiam	觀點
koasu	歌詞
koat	訣
koat	括
koat	決
koatsim	決心
koattau	決鬥
koatteng	決定
koe	雞
koe	果
koe	改
koe	會
koe	解
koe	界
koe	菓
koe	粿
koe	街
koe	過
koe	鷄
koe	易
koe	瓜
koeh	哇
koeh	郭
koeke	會計